26 26
22
3 3 12 7
3 4 3 22
3 5 0 21
3 6 9 3
3 7 15 3
3 8 6 18
9 3 3 0
3 10 0 11
3 11 0 0
3 12 15 10
14 3 12 0
3 15 6 3
3 16 12 10
3 17 9 9
3 19 3 3
3 4 12 3
4 4 15 22
4 5 18 17
7 4 19 22
4 8 22 3
4 11 22 11
4 14 18 3
